NAME : pairopt
TYPE : ACVRP
DIMENSION : 8
EDGE_WEIGHT_TYPE : EXPLICIT
EDGE_WEIGHT_FORMAT : FULL_MATRIX
CAPACITY : 18750
VEHICLES : 2
EDGE_WEIGHT_SECTION
100000 -100000 -100000 100000 100000 100000 100000 100000 
100000 100000 1000000 1134 51266 51270 105 148 
100000 1000000 100000 51188 51195 51355 50744 50981 
0 1134 51188 100000 446 310 102061 1001 
0 51266 51195 446 100000 316 102500 102549 
0 51270 51355 310 316 100000 102549 1309 
0 105 50744 102061 102500 102549 100000 250 
0 148 50981 1001 102549 1309 250 100000 
DEMAND_SECTION
1 0
2 0
3 0
4 5000
5 5000
6 5000
7 5000
8 5000
DEPOT_SECTION
1
EOF